data/solutions/recovery/degenerate/intermediate/binding/degenerate_intermediate_instance37/10.sol
Elapsed time: 0.04
Upper bound: 206881.0
Planning weighted value: 9173762598.0
C[0]=206881.0
C[1]=190661.0
C[2]=185436.0
C[3]=184658.0
C[4]=184048.0
C[5]=182525.0
C[6]=181169.0
C[7]=180605.0
C[8]=176791.0
C[9]=133349.0
C[10]=126607.0
C[11]=119889.0
C[12]=119772.0
C[13]=117617.0
C[14]=0.0
C[15]=0.0
y[0]=0
y[1]=3
y[2]=8
y[3]=1
y[4]=9
y[5]=5
y[6]=5
y[7]=3
y[8]=1
y[9]=10
y[10]=0
y[11]=4
y[12]=0
y[13]=8
y[14]=7
y[15]=2
y[16]=8
y[17]=4
y[18]=6
y[19]=0
y[20]=0
y[21]=2
y[22]=12
y[23]=9
y[24]=10
y[25]=8
y[26]=6
y[27]=5
y[28]=3
y[29]=2
y[30]=7
y[31]=1
y[32]=11
y[33]=5
y[34]=9
y[35]=3
y[36]=12
y[37]=2
y[38]=0
y[39]=12
y[40]=2
y[41]=0
y[42]=5
y[43]=2
y[44]=13
y[45]=12
y[46]=11
y[47]=4
y[48]=13
y[49]=9
y[50]=4
y[51]=1
y[52]=11
y[53]=7
y[54]=3
y[55]=6
y[56]=9
y[57]=10
y[58]=1
y[59]=0
y[60]=5
y[61]=7
y[62]=1
y[63]=4
y[64]=0
