data/solutions/recovery/degenerate/intermediate/binding/degenerate_intermediate_instance37/10.log

Log started (V12.6.3.0) Sun Apr 22 12:33:18 2018

New value for default parallel thread count: 1

Problem '/tmp/tmp2f8rlu.pyomo.lp' read.
Read time = 0.02 sec. (0.77 ticks)

Problem name         : /tmp/tmp2f8rlu.pyomo.lp
Objective sense      : Minimize
Variables            :    1058  [Nneg: 1,  Binary: 1040,  General Integer: 17]
Objective nonzeros   :       1
Linear constraints   :     165  [Less: 81,  Equal: 84]
  Nonzeros           :   54877
  RHS nonzeros       :      66

Variables            : Min LB: 0.000000         Max UB: 1.000000       
Objective nonzeros   : Min   : 1.000000         Max   : 1.000000       
Linear constraints   :
  Nonzeros           : Min   : 1.000000         Max   : 128311.0       
  RHS nonzeros       : Min   : 1.000000         Max   : 1.000000       
Tried aggregator 2 times.
MIP Presolve eliminated 127 rows and 903 columns.
Aggregator did 14 substitutions.
Reduced MIP has 24 rows, 141 columns, and 294 nonzeros.
Reduced MIP has 140 binaries, 1 generals, 0 SOSs, and 0 indicators.
Presolve time = 0.00 sec. (4.06 ticks)
Found incumbent of value 743095.000000 after 0.00 sec. (5.43 ticks)
Probing time = 0.00 sec. (0.18 ticks)
Cover probing fixed 0 vars, tightened 2 bounds.
Tried aggregator 1 time.
Reduced MIP has 24 rows, 141 columns, and 294 nonzeros.
Reduced MIP has 140 binaries, 1 generals, 0 SOSs, and 0 indicators.
Presolve time = 0.00 sec. (0.23 ticks)
Probing time = 0.00 sec. (0.18 ticks)
Clique table members: 10.
MIP emphasis: balance optimality and feasibility.
MIP search method: dynamic search.
Parallel mode: none, using 1 thread.
Root relaxation solution time = 0.00 sec. (0.13 ticks)

        Nodes                                         Cuts/
   Node  Left     Objective  IInf  Best Integer    Best Bound    ItCnt     Gap

*     0+    0                       743095.0000   190661.0000            74.34%
      0     0   190661.0000    13   743095.0000   190661.0000       23   74.34%
*     0+    0                       305102.0000   190661.0000            37.51%
      0     0   190661.0000     4   305102.0000       Cuts: 3       26   37.51%
*     0+    0                       244444.0000   190661.0000            22.00%
      0     0   190661.0000     4   244444.0000       Cuts: 7       33   22.00%
*     0+    0                       215819.0000   190661.0000            11.66%
      0     0   191084.6777    11   215819.0000    MIRcuts: 2       41   11.46%
*     0+    0                       206881.0000   191084.6777             7.64%
      0     0        cutoff         206881.0000                     42    0.00%
Elapsed time = 0.01 sec. (8.24 ticks, tree = 0.01 MB, solutions = 4)

Mixed integer rounding cuts applied:  5

Root node processing (before b&c):
  Real time             =    0.01 sec. (8.29 ticks)
Sequential b&c:
  Real time             =    0.00 sec. (0.00 ticks)
                          ------------
Total (root+branch&cut) =    0.01 sec. (8.29 ticks)

Solution pool: 4 solutions saved.

MIP - Integer optimal solution:  Objective =  2.0688100000e+05
Solution time =    0.01 sec.  Iterations = 42  Nodes = 0
Deterministic time = 8.30 ticks  (941.53 ticks/sec)


Incumbent solution written to file '/tmp/tmpaXgqCn.cplex.sol'.
